GLPK-64/copy/sutki.log
GLPSOL: GLPK LP/MIP Solver, v4.53
Parameter(s) specified in the command line:
 -o sutki.sol --log sutki.log --max --lp sutki.lp
Reading problem data from 'sutki.lp'...
73 rows, 128 columns, 243 non-zeros
192 lines were read
GLPK Simplex Optimizer, v4.53
73 rows, 128 columns, 243 non-zeros
Preprocessing...
18 rows, 65 columns, 130 non-zeros
Scaling...
 A: min|aij| = 1.000e+000  max|aij| = 1.000e+000  ratio = 1.000e+000
Problem data seem to be well scaled
Constructing initial basis...
Size of triangular part is 18
*     0: obj =  0.000000000e+000  infeas = 0.000e+000 (0)
*    29: obj =  4.912977000e+004  infeas = 0.000e+000 (0)
OPTIMAL LP SOLUTION FOUND
Time used:   0.1 secs
Memory used: 0.1 Mb (121044 bytes)
Writing basic solution to `sutki.sol'...
