GLPK-64/copy/sutki.sol
Problem:    
Rows:       73
Columns:    128
Non-zeros:  243
Status:     OPTIMAL
Objective:  obj = 49129.77 (MAXimum)

   No.   Row name   St   Activity     Lower bound   Upper bound    Marginal
------ ------------ -- ------------- ------------- ------------- -------------
     1 R11          NS             0             0             =        2311.3 
     2 R12          NS             0             0             =       2191.18 
     3 R13          NS             0             0             =        551.51 
     4 R15          NS             0             0             =        519.23 
     5 R17          NS             0             0             =        494.46 
     6 R19          NS             0             0             =        645.74 
     7 R20          NS             0             0             =        622.11 
     8 R21          NS             0             0             =        579.22 
     9 R22          NS             0             0             =        559.24 
    10 R23          NS             0             0             =        540.15 
    11 R24          NS             0             0             =        521.88 
    12 R25          NS             0             0             =        504.39 
    13 R26          NS             0             0             =        487.64 
    14 limitSite1   B              0             0               
    15 limitSite2   NL             0             0                      -23.13 
    16 limitSite3   NL             0             0                        -512 
    17 limitSite4   NL             0             0                     -213.67 
    18 limitSite5   NL             0             0                     -927.59 
    19 limitSite6   NL             0             0                    -2473.02 
    20 limitSite7   NL             0             0                    -2491.29 
    21 limitSite8   B              0             0               
    22 limitSite9   B              0             0               
    23 limitSite10  B              3             0               
    24 limitSite11  B              2             0               
    25 limitSite12  B              5             0               
    26 limitSite13  B              5             0               
    27 limitSite14  B              5             0               
    28 limitSite15  B              0             0               
    29 limitSite16  B              0             0               
    30 limitSite17  B              0             0               
    31 limitSite18  B              0             0               
    32 limitSite19  B              5             0               
    33 limitSite20  B              0             0               
    34 limitSite21  B              5             0               
    35 limitSite22  B              0             0               
    36 limitSite23  B              5             0               
    37 limitSite24  B              0             0               
    38 limitSite25  B              5             0               
    39 limitSite26  B              0             0               
    40 limitSite27  B              5             0               
    41 limitSite28  B              5             0               
    42 limitSite29  B              5             0               
    43 limitSite30  B              5             0               
    44 rootSite1    NS            31            31             =         < eps
    45 rootSite2    NS            15            15             =         23.13 
    46 rootSite3    NS             5             5             =           512 
    47 rootSite4    NS             5             5             =        213.67 
    48 rootSite5    NS             4             4             =        927.59 
    49 rootSite6    NS             0             0             =       2473.02 
    50 rootSite7    NS             0             0             =       2491.29 
    51 rootSite8    NS             0             0             =         < eps
    52 rootSite9    NS             0             0             =         < eps
    53 rootSite10   NS             0             0             =         < eps
    54 rootSite11   NS             0             0             =         < eps
    55 rootSite12   NS             0             0             =         < eps
    56 rootSite13   NS             0             0             =         < eps
    57 rootSite14   NS             0             0             =         < eps
    58 rootSite15   NS             0             0             =         < eps
    59 rootSite16   NS             0             0             =         < eps
    60 rootSite17   NS             0             0             =         < eps
    61 rootSite18   NS             0             0             =         < eps
    62 rootSite19   NS             0             0             =         < eps
    63 rootSite20   NS             0             0             =         < eps
    64 rootSite21   NS             0             0             =         < eps
    65 rootSite22   NS             0             0             =         < eps
    66 rootSite23   NS             0             0             =         < eps
    67 rootSite24   NS             0             0             =         < eps
    68 rootSite25   NS             0             0             =         < eps
    69 rootSite26   NS             0             0             =         < eps
    70 rootSite27   NS             0             0             =         < eps
    71 rootSite28   NS             0             0             =         < eps
    72 rootSite29   NS             0             0             =         < eps
    73 rootSite30   NS             0             0             =         < eps

   No. Column name  St   Activity     Lower bound   Upper bound    Marginal
------ ------------ -- ------------- ------------- ------------- -------------
     1 S1M11        NL             0             0                     -606.97 
     2 S2M11        NL             0             0                     -592.18 
     3 S3M11        B              3             0               
     4 S4M11        NL             0             0                     -176.44 
     5 S5M11        NL             0             0                     -338.12 
     6 S1M12        NL             0             0                     -563.94 
     7 S2M12        NL             0             0                     -550.61 
     8 S3M12        B              2             0               
     9 S4M12        NL             0             0                     -158.18 
    10 S5M12        NL             0             0                      -341.1 
    11 S1M13        NL             0             0                      -12.45 
    12 S2M13        NL             0             0                       -5.96 
    13 S3M13        NL             0             0                      -35.12 
    14 S4M13        B              5             0               
    15 S5M13        NL             0             0                     -493.46 
    16 S1M15        NL             0             0                        -5.6 
    17 S2M15        B              5             0               
    18 S3M15        NL             0             0                      -43.09 
    19 S4M15        B              0             0               
    20 S5M15        NL             0             0                     -500.14 
    21 S1M17        NL             0             0                       -4.76 
    22 S2M17        B              5             0               
    23 S3M17        NL             0             0                      -56.21 
    24 S4M17        NL             0             0                       -5.61 
    25 S5M17        NL             0             0                     -512.03 
    26 S1M19        NL             0             0                       -0.58 
    27 S2M19        B              1             0               
    28 S3M19        B              0             0               
    29 S4M19        NL             0             0                      -38.36 
    30 S5M19        B              4             0               
    31 S1M20        B              1             0               
    32 S2M20        B              4             0               
    33 S3M20        NL             0             0                      -11.92 
    34 S4M20        NL             0             0                      -42.07 
    35 S5M20        NL             0             0                      -22.06 
    36 S1M21        B              5             0               
    37 S2M21        NL             0             0                       -1.08 
    38 S3M21        NL             0             0                      -35.18 
    39 S4M21        NL             0             0                      -50.05 
    40 S5M21        NL             0             0                      -64.17 
    41 S1M22        B              5             0               
    42 S2M22        NL             0             0                       -1.58 
    43 S3M22        NL             0             0                      -46.02 
    44 S4M22        NL             0             0                      -53.77 
    45 S5M22        NL             0             0                       -83.8 
    46 S1M23        B              5             0               
    47 S2M23        NL             0             0                       -2.06 
    48 S3M23        NL             0             0                      -56.38 
    49 S4M23        NL             0             0                      -57.33 
    50 S5M23        NL             0             0                     -102.55 
    51 S6M23        B              0             0               
    52 S1M24        B              5             0               
    53 S2M24        NL             0             0                       -2.52 
    54 S3M24        NL             0             0                      -66.28 
    55 S4M24        NL             0             0                      -60.72 
    56 S5M24        NL             0             0                     -120.48 
    57 S6M24        NL             0             0                     -109.16 
    58 S7M24        B              0             0               
    59 S1M25        B              5             0               
    60 S2M25        NL             0             0                       -2.95 
    61 S3M25        NL             0             0                      -75.76 
    62 S4M25        NL             0             0                      -63.97 
    63 S5M25        NL             0             0                     -137.65 
    64 S6M25        NL             0             0                     -209.66 
    65 S7M25        NL             0             0                     -109.94 
    66 S1M26        B              5             0               
    67 S2M26        NL             0             0                       -3.38 
    68 S3M26        NL             0             0                      -84.85 
    69 S4M26        NL             0             0                       -67.1 
    70 S5M26        NL             0             0                     -154.12 
    71 S6M26        NL             0             0                     -302.47 
    72 S7M26        NL             0             0                     -211.18 
    73 M11          NU             3             0             3        2311.3 
    74 M12          NU             2             0             2       2191.18 
    75 M13          NU             5             0             5        551.51 
    76 M15          NU             5             0             5        519.23 
    77 M17          NU             5             0             5        494.46 
    78 M19          NU             5             0             5        645.74 
    79 M20          NU             5             0             5        622.11 
    80 M21          NU             5             0             5        579.22 
    81 M22          NU             5             0             5        559.24 
    82 M23          NU             5             0             5        540.15 
    83 M24          NU             5             0             5        521.88 
    84 M25          NU             5             0             5        504.39 
    85 M26          NU             5             0             5        487.64 
    86 S1           B             31             0               
    87 S2           B             15             0               
    88 S3           B              5             0               
    89 S4           B              5             0               
    90 S5           B              4             0               
    91 S6           B              0             0               
    92 S7           B              0             0               
    93 S8           B              0             0               
    94 S9           B              0             0               
    95 S10          B              3             0               
    96 S11          B              2             0               
    97 S12          B              5             0               
    98 S13          B              5             0               
    99 S14          B              5             0               
   100 S15          B              0             0               
   101 S16          B              0             0               
   102 S17          B              0             0               
   103 S18          B              0             0               
   104 S19          B              5             0               
   105 S20          B              0             0               
   106 S21          B              5             0               
   107 S22          B              0             0               
   108 S23          B              5             0               
   109 S24          B              0             0               
   110 S25          B              5             0               
   111 S26          B              0             0               
   112 S27          B              5             0               
   113 S28          B              5             0               
   114 S29          B              5             0               
   115 S30          B              5             0               
   116 M1           NS             0             0             =       2473.02 
   117 M4           NS             0             0             =       2491.29 
   118 M5           NS             0             0             =         < eps
   119 M8           NS             0             0             =         < eps
   120 M2           NS             0             0             =         < eps
   121 M6           NS             0             0             =         < eps
   122 M3           NS             0             0             =         < eps
   123 M9           NS             0             0             =         < eps
   124 M7           NS             0             0             =         < eps
   125 M10          NS             0             0             =         < eps
   126 M14          NS             0             0             =         < eps
   127 M16          NS             0             0             =         < eps
   128 M18          NS             0             0             =         < eps

Karush-Kuhn-Tucker optimality conditions:

KKT.PE: max.abs.err = 0.00e+000 on row 0
        max.rel.err = 0.00e+000 on row 0
        High quality

KKT.PB: max.abs.err = 0.00e+000 on row 0
        max.rel.err = 0.00e+000 on row 0
        High quality

KKT.DE: max.abs.err = 1.14e-013 on column 27
        max.rel.err = 8.49e-017 on column 27
        High quality

KKT.DB: max.abs.err = 0.00e+000 on row 0
        max.rel.err = 0.00e+000 on row 0
        High quality

End of output
